unsat
(forall ((A (_ BitVec 20))
         (B (_ BitVec 20))
         (C (_ BitVec 20))
         (D (_ BitVec 20))
         (E (_ BitVec 20))
         (F (_ BitVec 20))
         (G (_ BitVec 20))
         (H (_ BitVec 20))
         (I (_ BitVec 20))
         (J (_ BitVec 20))
         (K (_ BitVec 20))
         (L (_ BitVec 20))
         (M (_ BitVec 20))
         (N (_ BitVec 20))
         (O (_ BitVec 20))
         (P (_ BitVec 20))
         (Q (_ BitVec 20))
         (R (_ BitVec 20))
         (S (_ BitVec 20))
         (T (_ BitVec 20))
         (U (_ BitVec 18))
         (V (_ BitVec 20))
         (W (_ BitVec 18))
         (X (_ BitVec 20))
         (Y (_ BitVec 20))
         (Z (_ BitVec 38))
         (A1 (_ BitVec 1))
         (B1 (_ BitVec 20))
         (C1 (_ BitVec 1))
         (D1 (_ BitVec 20))
         (E1 (_ BitVec 20))
         (F1 (_ BitVec 17))
         (G1 (_ BitVec 20))
         (H1 (_ BitVec 20))
         (I1 (_ BitVec 20))
         (J1 (_ BitVec 20))
         (K1 (_ BitVec 20))
         (L1 (_ BitVec 38))
         (M1 (_ BitVec 20))
         (N1 (_ BitVec 20))
         (O1 (_ BitVec 1))
         (P1 (_ BitVec 38))
         (Q1 (_ BitVec 1))
         (R1 (_ BitVec 20))
         (S1 (_ BitVec 20))
         (T1 (_ BitVec 20))
         (U1 (_ BitVec 20))
         (V1 (_ BitVec 14))
         (W1 (_ BitVec 17))
         (X1 (_ BitVec 17))
         (Y1 (_ BitVec 17))
         (Z1 (_ BitVec 20))
         (A2 (_ BitVec 20))
         (B2 (_ BitVec 1))
         (C2 (_ BitVec 22))
         (D2 (_ BitVec 20))
         (E2 (_ BitVec 20))
         (F2 (_ BitVec 20))
         (G2 (_ BitVec 1))
         (H2 (_ BitVec 20))
         (I2 (_ BitVec 1))
         (J2 (_ BitVec 1))
         (K2 (_ BitVec 1))
         (L2 (_ BitVec 38))
         (M2 (_ BitVec 14))
         (N2 (_ BitVec 22))
         (O2 (_ BitVec 14))
         (P2 (_ BitVec 22))
         (Q2 (_ BitVec 22))
         (R2 (_ BitVec 20))
         (S2 (_ BitVec 16))
         (T2 (_ BitVec 38))
         (U2 (_ BitVec 30))
         (V2 (_ BitVec 30))
         (W2 (_ BitVec 20))
         (X2 (_ BitVec 20))
         (Y2 (_ BitVec 1))
         (Z2 (_ BitVec 20))
         (A3 (_ BitVec 20))
         (B3 (_ BitVec 20))
         (C3 (_ BitVec 20))
         (D3 (_ BitVec 20))
         (E3 (_ BitVec 16))
         (F3 (_ BitVec 20))
         (G3 (_ BitVec 18))
         (H3 (_ BitVec 30))
         (I3 (_ BitVec 1))
         (J3 (_ BitVec 38))
         (K3 (_ BitVec 30)))
  (! (let ((a!1 ((_ extract 5 2)
                  (bvadd (concat #b000 ((_ extract 21 2) C2)) (concat #b0 Q2))))
           (a!3 (concat ((_ extract 3 2)
                          (bvadd ((_ extract 37 4) P1) (concat #x000 N2)))
                        (bvadd ((_ extract 1 0) N2) ((_ extract 5 4) P1))
                        ((_ extract 3 0) P1)))
           (a!4 (= (concat (bvadd ((_ extract 7 6) L1) ((_ extract 1 0) P2))
                           ((_ extract 5 0) L1))
                   ((_ extract 7 0) F1))))
     (let ((a!2 (= (concat a!1
                           (bvadd ((_ extract 3 2) C2) ((_ extract 1 0) Q2))
                           ((_ extract 1 0) C2))
                   ((_ extract 7 0) W1))))
     (let ((a!5 (and (or (not (= J2 #b0)) (= K2 #b0))
                     (or ((_ bit2bool 0) G3)
                         ((_ bit2bool 0) U)
                         (not ((_ bit2bool 0) W)))
                     (or ((_ bit2bool 0) G3)
                         ((_ bit2bool 1) G3)
                         ((_ bit2bool 2) G3)
                         ((_ bit2bool 1) U)
                         (not ((_ bit2bool 1) W)))
                     (not ((_ bit2bool 3) M2))
                     (not ((_ bit2bool 2) M2))
                     (not ((_ bit2bool 1) M2))
                     (not ((_ bit2bool 0) M2))
                     (not ((_ bit2bool 0) O2))
                     (not (= ((_ extract 17 17) W) #b1))
                     (or (not (= T1 #x00000))
                         (not ((_ bit2bool 1) K1))
                         (= ((_ extract 1 1) L) #b1))
                     (not ((_ bit2bool 1) O2))
                     (or ((_ bit2bool 1) G3)
                         (not (= W #b000000000000000000))
                         (not ((_ bit2bool 1) U)))
                     (or (not (= Z1 #x00001)) a!2)
                     (or (not (= D1 #x00001)) (= a!3 ((_ extract 7 0) X1)))
                     (or (not (= A2 #x00001)) a!4)
                     (or (not (= B1 #x00001))
                         (= ((_ extract 7 0) Y1) ((_ extract 7 0) Z))))))
       (= (INV!slice!1 A
                       B
                       C
                       D
                       E
                       F
                       G
                       H
                       I
                       J
                       K
                       L
                       M
                       N
                       O
                       P
                       Q
                       R
                       S
                       T
                       U
                       V
                       W
                       X
                       Y
                       Z
                       A1
                       B1
                       C1
                       D1
                       E1
                       F1
                       G1
                       H1
                       I1
                       J1
                       K1
                       L1
                       M1
                       N1
                       O1
                       P1
                       Q1
                       R1
                       S1
                       T1
                       U1
                       V1
                       W1
                       X1
                       Y1
                       Z1
                       A2
                       B2
                       C2
                       D2
                       E2
                       F2
                       G2
                       H2
                       I2
                       J2
                       K2
                       L2
                       M2
                       N2
                       O2
                       P2
                       Q2
                       R2
                       S2
                       T2
                       U2
                       V2
                       W2
                       X2
                       Y2
                       Z2
                       A3
                       B3
                       C3
                       D3
                       E3
                       F3
                       G3
                       H3
                       I3
                       J3
                       K3)
          a!5))))
     :weight 0))
